
  25    0


   0  14 2 3 4 5 6 9 10 11 12 13 21 22 23 24 
   7   6 18 17 16 15 8 7 
   2   4 20 19 18 14 
   5   3 19 17 16 
   1   2 18 14 
   1   2 17 14 
   8   1 14 
   8   1 14 
   5   1 16 
   6   1 15 
   1   1 15 
   9   1 14 
   3   1 14 
   5   1 25
   4   1 25
   3   1 25
  10   1 25
   3   1 25
   9   1 25
   9   1 25
   7   1 25
   6   1 25
   1   1 25
  10   1 25
   0   0 
